instances/in_60_30_6_4.lp
#const n = 60.
#const k = 30.
#const h = 6.
tile(1,5,25).
tile(2,11,29).
tile(3,6,18).
tile(4,24,21).
tile(5,25,29).
tile(6,13,14).
tile(7,28,8).
tile(8,3,11).
tile(9,25,29).
tile(10,12,20).
tile(11,4,29).
tile(12,29,15).
tile(13,8,1).
tile(14,16,13).
tile(15,24,23).
tile(16,14,13).
tile(17,1,3).
tile(18,16,24).
tile(19,23,19).
tile(20,23,19).
tile(21,26,18).
tile(22,25,7).
tile(23,11,16).
tile(24,24,15).
tile(25,3,13).
tile(26,26,17).
tile(27,26,26).
tile(28,22,17).
tile(29,21,26).
tile(30,2,13).
tile(31,24,17).
tile(32,11,24).
tile(33,27,27).
tile(34,19,16).
tile(35,9,10).
tile(36,20,26).
tile(37,30,5).
tile(38,8,28).
tile(39,26,1).
tile(40,1,20).
tile(41,8,1).
tile(42,12,13).
tile(43,20,12).
tile(44,25,2).
tile(45,13,26).
tile(46,4,24).
tile(47,7,10).
tile(48,27,14).
tile(49,12,10).
tile(50,25,17).
tile(51,13,14).
tile(52,15,30).
tile(53,19,16).
tile(54,6,13).
tile(55,3,12).
tile(56,14,19).
tile(57,4,18).
tile(58,22,20).
tile(59,13,17).
tile(60,26,2).
