minizinc/input/in_60_30_6_4.dzn
n = 60;
k = 30;
h = 6;
tiles = array2d(1..n, 1..2,
[ 5,25
, 11,29
, 6,18
, 24,21
, 25,29
, 13,14
, 28,8
, 3,11
, 25,29
, 12,20
, 4,29
, 29,15
, 8,1
, 16,13
, 24,23
, 14,13
, 1,3
, 16,24
, 23,19
, 23,19
, 26,18
, 25,7
, 11,16
, 24,15
, 3,13
, 26,17
, 26,26
, 22,17
, 21,26
, 2,13
, 24,17
, 11,24
, 27,27
, 19,16
, 9,10
, 20,26
, 30,5
, 8,28
, 26,1
, 1,20
, 8,1
, 12,13
, 20,12
, 25,2
, 13,26
, 4,24
, 7,10
, 27,14
, 12,10
, 25,17
, 13,14
, 15,30
, 19,16
, 6,13
, 3,12
, 14,19
, 4,18
, 22,20
, 13,17
, 26,2
]);